problems/csplib-prob056/sonet-models/noch/O2/lingeling/model_2_1-s3ring15-solution000001.eprime-solution
language ESSENCE' 1.0

letting network_ExplicitWithFlagsR6_Flags be [1, 1, 1, 1, 1, 1, 1; int(1..7)]
letting network_ExplicitWithFlagsR6_Values_ExplicitVarSizeWithDummy be
        [[1, 9, 14, 14, 14; int(1..5)], [1, 11, 14, 14, 14; int(1..5)], [2, 3, 9, 10, 13; int(1..5)],
         [2, 4, 5, 6, 7; int(1..5)], [4, 8, 11, 12, 13; int(1..5)], [7, 8, 9, 10, 12; int(1..5)],
         [14, 14, 14, 14, 14; int(1..5)]; int(1..7)]
